c SAT Generator for power-law distributed variable frequencies
c -g u -v 20 -c 91 -k 3 -p 2.750000 -b 3.200000 -f /home/schmidt/Devel/ni-kop-sat/data/ensemble/ruf20-91/ruf20-91-866 -u 1 -U 1 -s 4171339271
p cnf 20 91
-8 -9 18 0
7 8 -18 0
8 13 -18 0
-3 -10 11 0
6 -9 -12 0
-4 8 19 0
-3 15 20 0
-6 7 -13 0
-9 19 -20 0
8 16 20 0
-3 -8 -14 0
-11 -15 -19 0
7 15 -17 0
-5 8 -12 0
-13 15 -17 0
-10 12 14 0
11 14 19 0
3 15 17 0
2 -9 15 0
8 10 -12 0
12 13 15 0
-13 16 19 0
-1 -5 -20 0
5 6 20 0
-11 15 -19 0
-1 -3 -5 0
-5 10 20 0
-5 -14 18 0
14 -18 19 0
-4 -12 14 0
4 -12 -13 0
7 -12 19 0
1 -7 -11 0
10 -11 -13 0
1 6 -20 0
-12 -17 18 0
5 -13 18 0
-1 13 17 0
-1 -3 12 0
15 -17 20 0
-4 -9 11 0
-3 6 -17 0
3 8 -12 0
2 10 -15 0
4 -15 19 0
-2 -7 15 0
-2 12 -15 0
-9 -10 -18 0
5 -9 -16 0
-1 6 -11 0
-12 15 -17 0
-1 -3 11 0
-1 5 -18 0
2 14 18 0
2 -11 18 0
1 12 -19 0
-3 12 17 0
1 -5 17 0
7 -9 19 0
2 7 9 0
16 18 -19 0
2 -4 -14 0
-1 13 -20 0
4 7 -16 0
2 11 -17 0
-5 7 -15 0
1 -8 -16 0
7 -9 14 0
11 -13 -17 0
2 -7 8 0
-2 -6 12 0
1 -3 12 0
6 8 -18 0
-8 15 -16 0
-1 -15 -20 0
-8 9 -14 0
-14 -16 -20 0
1 4 14 0
4 17 20 0
-9 -14 -20 0
3 6 18 0
5 -6 -20 0
-11 18 20 0
7 9 18 0
-5 8 -10 0
1 14 20 0
-1 7 9 0
9 -14 -20 0
3 -15 17 0
8 -9 -19 0
6 -15 -17 0
